c turning on binary mode checking
c parsing input formula with 5 variables and 8 clauses
c finished parsing
c detected empty clause; start verification via backward checking
c 8 of 8 clauses in core
c 10 of 11 lemmas in core using 31 resolution steps
c 2 RAT lemmas in core; 0 redundant literals in core lemmas
s VERIFIED
c verification time: 0.068 seconds
